%chk=@chk
#p mp2/aug-cc-pVTZ opt freq nosymm tempereture=298.15

geometry optimization and thermochemical data calculations

0 1
@data

